(set-logic ALL)
(declare-const input_str_VAR String)
(assert (not (= (str.len input_str_VAR) 0)))
(assert (not (< (str.len input_str_VAR) 0)))
(assert (str.contains input_str_VAR " "))
(assert (not (< (str.len input_str_VAR) 0)))
(assert (not (= (+ 0 (str.indexof input_str_VAR " " 0)) (- 1))))
(assert (< 0 (str.len (str.replaceall (str.replaceall (str.replaceall (str.replaceall (str.replaceall (str.replaceall (str.replaceall (str.replaceall (str.replaceall (str.replaceall (str.replaceall (str.replaceall (str.replaceall (str.replaceall (str.replaceall (str.replaceall (str.replaceall (str.replaceall (str.replaceall (str.replaceall (str.replaceall (str.replaceall (str.replaceall (str.replaceall (str.replaceall (str.replaceall (str.++ "" (str.replaceall input_str_VAR " " "")) "A" "a") "B" "b") "C" "c") "D" "d") "E" "e") "F" "f") "G" "g") "H" "h") "I" "i") "J" "j") "K" "k") "L" "l") "M" "m") "N" "n") "O" "o") "P" "p") "Q" "q") "R" "r") "S" "s") "T" "t") "U" "u") "V" "v") "W" "w") "X" "x") "Y" "y") "Z" "z"))))
(check-sat)
(get-value (input_str_VAR))
